s td 128 12 152
b 1 63 66 68
b 2 64 65 67
b 3 65 67 95
b 4 66 68 96
b 5 67 95 137
b 6 68 96 138
b 7 85 88 90
b 8 86 87 89
b 9 87 89 127
b 10 88 90 128
b 11 89 107 127
b 12 90 108 128
b 13 141 144 146
b 14 142 143 145
b 15 105 143 145
b 16 106 144 146
b 17 43 105 145
b 18 44 106 146
b 19 147 150 152
b 20 148 149 151
b 21 97 149 151
b 22 98 150 152
b 23 97 115 151
b 24 98 116 152
b 25 1 2 9 10 11 12 13 16 26 83
b 26 3 9 12 13 16
b 27 4 10 11 13 16
b 28 1 2 9 10 11 12 13 14 26 83
b 29 9 10 11 12 13 14 15 83
b 30 5 9 12 14 15
b 31 6 10 11 14 15
b 32 7 10 12 13 15
b 33 8 9 11 13 15
b 34 9 10 11 12 13 16 21 22 26 41 42 83
b 35 13 16 21 22 26 41 42 80 83 108 127 129
b 36 13 21 22 26 80 108 127 129 130
b 37 13 21 22 26 108 127 128 129 130
b 38 13 21 22 25 26 127 128 129 130
b 39 21 22 25 26 121 127 128 129 130
b 40 21 22 25 26 121 124 127 129
b 41 17 21 22 25 26 121 124
b 42 17 21 25 121 124 126
b 43 17 19 21 25 126
b 44 17 19 24 126
b 45 20 21 22 25 26 127 128 129 130
b 46 18 20 21 26 127 128 129 130
b 47 18 20 123 127 128 129 130
b 48 18 20 122 123 127 130
b 49 18 20 122 123 125
b 50 18 20 23 125
b 51 16 41 42 45 46 80 83 105 106 108 127 129
b 52 37 41 42 45 46 106
b 53 37 41 44 45 106
b 54 39 41 44 45
b 55 38 41 42 45 46 105
b 56 38 42 43 45 105
b 57 40 42 43 45
b 58 16 45 46 80 83 105 106 107 108 127 129
b 59 16 45 46 80 83 84 105 106 107 108 129
b 60 45 46 80 82 83 84 105 106 107 108 129
b 61 45 80 81 82 83 84 105 106 107 108 129
b 62 79 80 81 82 83 84 105 106 107 108 129
b 63 78 79 80 81 82 83 84 105 106 107 108
b 64 69 78 80 82 84
b 65 72 78 79 81 84
b 66 74 78 79 82 83
b 67 75 78 80 81 83
b 68 78 105 106 107 108 110
b 69 101 106 108 110
b 70 102 105 107 110
b 71 77 79 80 81 82 83 84 105 106 107 108
b 72 70 77 79 82 84
b 73 71 77 80 81 84
b 74 73 77 80 82 83
b 75 76 77 79 81 83
b 76 77 103 105 106 107 108
b 77 77 103 104 106 107
b 78 77 103 104 109
b 79 9 10 11 12 21 22 41 42 61 62 96 137
b 80 11 12 41 42 61 62 96 137 138
b 81 11 12 41 42 61 62 136 137 138
b 82 11 12 41 42 61 135 136 137 138
b 83 11 12 36 41 42 135 136 137 138
b 84 11 12 35 36 41 135 136 137 138
b 85 11 12 34 35 36 135 136 137 138
b 86 11 33 34 35 36 135 136 137 138
b 87 33 34 35 36 132 135 136 137 138
b 88 30 33 34 35 36 132 136 138
b 89 27 30 34 36 132 136 138
b 90 27 30 32 132 136 138
b 91 32 131 132 136 138
b 92 32 131 132 140
b 93 29 33 34 35 36 135 136 137 138
b 94 29 33 36 133 135 136 137 138
b 95 29 33 36 133 134 136 137
b 96 28 29 33 36 133 134
b 97 28 29 31 133 134
b 98 31 133 134 139
b 99 9 10 21 22 56 61 62 96 98 115 119 137
b 100 9 10 56 61 62 96 97 98 115 119 137
b 101 9 10 56 61 62 95 96 97 98 119 137
b 102 9 10 56 60 61 62 95 96 97 98 119
b 103 9 56 59 60 61 62 95 96 97 98 119
b 104 55 56 59 60 61 62 95 96 97 98 119
b 105 55 56 59 60 61 62 91 95 96 97 98
b 106 55 56 58 59 60 61 62 91 95 97
b 107 47 56 58 60 62
b 108 49 55 58 59 62
b 109 51 55 58 60 61
b 110 53 56 58 59 61
b 111 58 91 92 95 97
b 112 58 91 92 100
b 113 55 56 57 59 60 61 62 95 96 97 98
b 114 48 55 57 60 62
b 115 50 56 57 59 62
b 116 52 56 57 60 61
b 117 54 55 57 59 61
b 118 57 94 95 96 97 98
b 119 57 94 95 98 99
b 120 93 95 98 99
b 121 21 22 56 98 115 117 119
b 122 22 56 98 111 115 117 119
b 123 56 111 115 117 120
b 124 112 115 117 120
b 125 22 111 113 115 119
b 126 22 111 113 118
b 127 98 111 116 117 119
b 128 114 116 117 119
1 4
2 3
3 5
4 6
5 101
6 80
7 10
8 9
9 11
10 12
11 58
12 37
13 16
14 15
15 17
16 18
17 56
18 53
19 22
20 21
21 23
22 24
23 100
24 127
25 26
25 27
25 28
25 34
28 29
29 30
29 31
29 32
29 33
34 35
34 79
35 36
35 51
36 37
37 38
38 39
38 45
39 40
40 41
41 42
42 43
43 44
45 46
46 47
47 48
48 49
49 50
51 52
51 55
51 58
52 53
53 54
55 56
56 57
58 59
59 60
60 61
61 62
62 63
62 71
63 64
63 65
63 66
63 67
63 68
68 69
68 70
71 72
71 73
71 74
71 75
71 76
76 77
77 78
79 80
79 99
80 81
81 82
82 83
83 84
84 85
85 86
86 87
86 93
87 88
88 89
89 90
90 91
91 92
93 94
94 95
95 96
96 97
97 98
99 100
99 121
100 101
101 102
102 103
103 104
104 105
104 113
105 106
106 107
106 108
106 109
106 110
106 111
111 112
113 114
113 115
113 116
113 117
113 118
118 119
119 120
121 122
122 123
122 125
122 127
123 124
125 126
127 128
